webassembly/ejemplos_dzn/folder13_json_49.dzn
TERM = { '.', 's(5)', 's(2)', 's(4)', 'in_1', 'local_0', 'local_1', 'in_2', 's(6)', 's(1)', 's(0)', 's(3)', 'in_0'};
null = '.';
s = 13;
n = 10;
ndeps = 6;
max_registers_sz = 4;
NR = 1;
registers = [|'local_0', 'local_1'|];
dependencies = [|'i32.store8_1', 'i32.load16_s_3', |'i32.store8_1', 'i32.load16_s_5', |'i32.load16_s_3', 'i32.store16_6', |'i32.load16_s_5', 'i32.store16_6', |'i32.store16_6', 'i32.load8_s_11', |'i32.load8_s_11', 'call[function_index(0)]_12'|];
GET_ENUM = { GET1, GET2, GET3, GET4, GET5};
SET_ENUM = { SET1, SET2, SET3, SET4, SET5};
TEE_ENUM = { TEE1, TEE2, TEE3, TEE4, TEE5};
N = 8;
OP = { 'call[function_index(0)]_12', 'i32.add_0', 'i32.store8_1', 'i32.load16_s_3', 'i32.load16_s_5', 'i32.store16_6', 'i32.load8_s_11', 'local.get_0' };
in_ops = [0, 2, 2, 1, 1, 2, 1, 0 ];
out_ops = [3, 1, 0, 1, 1, 0, 1, 1 ];
in1 = ['.', 'in_0', 's(0)', 'local_1', 'local_0', 's(2)', 'local_1', '.' ];
in2 = ['.', 'in_1', 'in_2', '.', '.', 's(1)', '.', '.' ];
in3 = ['.', '.', '.', '.', '.', '.', '.', '.' ];
out1 = ['s(6)', 's(0)', '.', 's(1)', 's(2)', '.', 's(3)', 'local_1' ];
out2 = ['s(5)', '.', '.', '.', '.', '.', '.', '.' ];
out3 = ['s(4)', '.', '.', '.', '.', '.', '.', '.' ];
comm = [false, true, false, false, false, false, false, false ];
gas = [1, 1, 1, 1, 1, 1, 1, 1 ];
sz = [1, 1, 1, 1, 1, 1, 1, 1 ];
stor = [true, false, true, false, false, true, false, false ];
lb = [ 1, 1, 1, 1, 1, 1, 1, 1 ];
ub = [ 13, 13, 13, 13, 13, 13, 13, 13 ];
startstack = [ 'in_0', 'in_1', 'in_2', null, null, null, null, null, null, null ];
endstack = [ 's(6)', 's(5)', 's(4)', 's(3)', 'local_0', null, null, null, null, null ];
